p cnf 379 1046
11 4 5 0
12 3 -11 0
13 2 -12 0
14 1 -13 0
-15 -2 0
-15 -3 0
15 2 3 0
-16 -4 0
-16 15 0
16 4 -15 0
-17 -5 0
-17 16 0
17 5 -16 0
-18 -1 0
-18 17 0
18 1 -17 0
-19 1 0
-19 -17 0
19 -1 17 0
-20 -18 0
-20 -19 0
20 18 19 0
-21 1 0
-21 20 0
21 -1 -20 0
-22 5 0
-22 -16 0
22 -5 16 0
-23 -17 0
-23 -22 0
23 17 22 0
-24 1 0
-24 23 0
24 -1 -23 0
-25 -1 0
-25 5 0
25 1 -5 0
-26 -24 0
-26 -25 0
26 24 25 0
-27 4 0
-27 -15 0
27 -4 15 0
-28 -16 0
-28 -27 0
28 16 27 0
-29 1 0
-29 28 0
29 -1 -28 0
-30 -1 0
-30 4 0
30 1 -4 0
-31 -29 0
-31 -30 0
31 29 30 0
-32 2 0
-32 3 0
32 -2 -3 0
-33 -15 0
-33 -32 0
33 15 32 0
-34 1 0
-34 33 0
34 -1 -33 0
-35 -1 0
-35 3 0
35 1 -3 0
-36 -34 0
-36 -35 0
36 34 35 0
-37 -6 0
-37 -10 0
37 6 10 0
-38 -9 0
-38 37 0
38 9 -37 0
-39 -8 0
-39 38 0
39 8 -38 0
-40 -7 0
-40 39 0
40 7 -39 0
-41 7 0
-41 -39 0
41 -7 39 0
-42 -40 0
-42 -41 0
42 40 41 0
-43 7 0
-43 42 0
43 -7 -42 0
-44 2 0
-44 -43 0
44 -2 43 0
-45 36 0
-45 -44 0
45 -36 44 0
-46 31 0
-46 45 0
46 -31 -45 0
-47 26 0
-47 46 0
47 -26 -46 0
-48 -21 0
-48 47 0
48 21 -47 0
-49 -36 0
-49 44 0
49 36 -44 0
-50 -45 0
-50 -49 0
50 45 49 0
-51 48 0
-51 50 0
51 -48 -50 0
-52 8 0
-52 -38 0
52 -8 38 0
-53 -39 0
-53 -52 0
53 39 52 0
-54 7 0
-54 53 0
54 -7 -53 0
-55 -7 0
-55 8 0
55 7 -8 0
-56 -54 0
-56 -55 0
56 54 55 0
-57 2 0
-57 56 0
57 -2 -56 0
-58 36 0
-58 -57 0
58 -36 57 0
-59 2 0
-59 48 0
59 -2 -48 0
-60 -43 0
-60 -59 0
60 43 59 0
-61 43 0
-61 59 0
61 -43 -59 0
-62 -60 0
-62 -61 0
62 60 61 0
-63 -36 0
-63 57 0
63 36 -57 0
-64 62 0
-64 -63 0
64 -62 63 0
-65 -58 0
-65 -64 0
65 58 64 0
-66 31 0
-66 -65 0
66 -31 65 0
-67 -31 0
-67 65 0
67 31 -65 0
-68 51 0
-68 -67 0
68 -51 67 0
-69 -66 0
-69 -68 0
69 66 68 0
-70 26 0
-70 -69 0
70 -26 69 0
-71 -31 0
-71 -45 0
71 31 45 0
-72 -46 0
-72 -71 0
72 46 71 0
-73 48 0
-73 72 0
73 -48 -72 0
-74 -26 0
-74 69 0
74 26 -69 0
-75 73 0
-75 -74 0
75 -73 74 0
-76 -70 0
-76 -75 0
76 70 75 0
-77 -21 0
-77 -76 0
77 21 76 0
-78 -66 0
-78 -67 0
78 66 67 0
-79 77 0
-79 78 0
79 -77 -78 0
-80 -51 0
-80 -79 0
80 51 79 0
-81 51 0
-81 79 0
81 -51 -79 0
-82 -80 0
-82 -81 0
82 80 81 0
-83 9 0
-83 -37 0
83 -9 37 0
-84 -38 0
-84 -83 0
84 38 83 0
-85 7 0
-85 84 0
85 -7 -84 0
-86 -7 0
-86 9 0
86 7 -9 0
-87 -85 0
-87 -86 0
87 85 86 0
-88 2 0
-88 87 0
88 -2 -87 0
-89 36 0
-89 -88 0
89 -36 88 0
-90 2 0
-90 77 0
90 -2 -77 0
-91 56 0
-91 -90 0
91 -56 90 0
-92 -56 0
-92 90 0
92 56 -90 0
-93 -91 0
-93 -92 0
93 91 92 0
-94 -36 0
-94 88 0
94 36 -88 0
-95 93 0
-95 -94 0
95 -93 94 0
-96 -89 0
-96 -95 0
96 89 95 0
-97 31 0
-97 -96 0
97 -31 96 0
-98 -58 0
-98 -63 0
98 58 63 0
-99 77 0
-99 98 0
99 -77 -98 0
-100 -62 0
-100 -99 0
100 62 99 0
-101 62 0
-101 99 0
101 -62 -99 0
-102 -100 0
-102 -101 0
102 100 101 0
-103 -31 0
-103 96 0
103 31 -96 0
-104 102 0
-104 -103 0
104 -102 103 0
-105 -97 0
-105 -104 0
105 97 104 0
-106 26 0
-106 -105 0
106 -26 105 0
-107 -26 0
-107 105 0
107 26 -105 0
-108 82 0
-108 -107 0
108 -82 107 0
-109 -106 0
-109 -108 0
109 106 108 0
-110 -21 0
-110 -109 0
110 21 109 0
-111 -70 0
-111 -74 0
111 70 74 0
-112 77 0
-112 111 0
112 -77 -111 0
-113 -73 0
-113 -112 0
113 73 112 0
-114 73 0
-114 112 0
114 -73 -112 0
-115 -113 0
-115 -114 0
115 113 114 0
-116 21 0
-116 109 0
116 -21 -109 0
-117 115 0
-117 -116 0
117 -115 116 0
-118 -110 0
-118 -117 0
118 110 117 0
-119 -106 0
-119 -107 0
119 106 107 0
-120 -118 0
-120 119 0
120 118 -119 0
-121 -82 0
-121 -120 0
121 82 120 0
-122 82 0
-122 120 0
122 -82 -120 0
-123 -121 0
-123 -122 0
123 121 122 0
-124 -110 0
-124 -116 0
124 110 116 0
-125 115 0
-125 -124 0
125 -115 124 0
-126 6 0
-126 10 0
126 -6 -10 0
-127 -37 0
-127 -126 0
127 37 126 0
-128 7 0
-128 127 0
128 -7 -127 0
-129 -7 0
-129 10 0
129 7 -10 0
-130 -128 0
-130 -129 0
130 128 129 0
-131 2 0
-131 130 0
131 -2 -130 0
-132 36 0
-132 -131 0
132 -36 131 0
-133 2 0
-133 -118 0
133 -2 118 0
-134 87 0
-134 -133 0
134 -87 133 0
-135 -87 0
-135 133 0
135 87 -133 0
-136 -134 0
-136 -135 0
136 134 135 0
-137 -36 0
-137 131 0
137 36 -131 0
-138 136 0
-138 -137 0
138 -136 137 0
-139 -132 0
-139 -138 0
139 132 138 0
-140 31 0
-140 -139 0
140 -31 139 0
-141 -89 0
-141 -94 0
141 89 94 0
-142 -118 0
-142 141 0
142 118 -141 0
-143 -93 0
-143 -142 0
143 93 142 0
-144 93 0
-144 142 0
144 -93 -142 0
-145 -143 0
-145 -144 0
145 143 144 0
-146 -31 0
-146 139 0
146 31 -139 0
-147 145 0
-147 -146 0
147 -145 146 0
-148 -140 0
-148 -147 0
148 140 147 0
-149 26 0
-149 -148 0
149 -26 148 0
-150 -97 0
-150 -103 0
150 97 103 0
-151 -118 0
-151 150 0
151 118 -150 0
-152 -102 0
-152 -151 0
152 102 151 0
-153 102 0
-153 151 0
153 -102 -151 0
-154 -152 0
-154 -153 0
154 152 153 0
-155 -26 0
-155 148 0
155 26 -148 0
-156 154 0
-156 -155 0
156 -154 155 0
-157 -149 0
-157 -156 0
157 149 156 0
-158 -21 0
-158 -157 0
158 21 157 0
-159 21 0
-159 157 0
159 -21 -157 0
-160 123 0
-160 -159 0
160 -123 159 0
-161 -158 0
-161 -160 0
161 158 160 0
-162 -125 0
-162 161 0
162 125 -161 0
-163 -158 0
-163 -159 0
163 158 159 0
-164 -162 0
-164 163 0
164 162 -163 0
-165 -123 0
-165 -164 0
165 123 164 0
-166 123 0
-166 164 0
166 -123 -164 0
-167 -165 0
-167 -166 0
167 165 166 0
-168 2 0
-168 -6 0
168 -2 6 0
-169 36 0
-169 -168 0
169 -36 168 0
-170 2 0
-170 -162 0
170 -2 162 0
-171 130 0
-171 -170 0
171 -130 170 0
-172 -130 0
-172 170 0
172 130 -170 0
-173 -171 0
-173 -172 0
173 171 172 0
-174 -36 0
-174 168 0
174 36 -168 0
-175 173 0
-175 -174 0
175 -173 174 0
-176 -169 0
-176 -175 0
176 169 175 0
-177 31 0
-177 -176 0
177 -31 176 0
-178 -132 0
-178 -137 0
178 132 137 0
-179 -162 0
-179 178 0
179 162 -178 0
-180 -136 0
-180 -179 0
180 136 179 0
-181 136 0
-181 179 0
181 -136 -179 0
-182 -180 0
-182 -181 0
182 180 181 0
-183 -31 0
-183 176 0
183 31 -176 0
-184 182 0
-184 -183 0
184 -182 183 0
-185 -177 0
-185 -184 0
185 177 184 0
-186 26 0
-186 -185 0
186 -26 185 0
-187 -140 0
-187 -146 0
187 140 146 0
-188 -162 0
-188 187 0
188 162 -187 0
-189 -145 0
-189 -188 0
189 145 188 0
-190 145 0
-190 188 0
190 -145 -188 0
-191 -189 0
-191 -190 0
191 189 190 0
-192 -26 0
-192 185 0
192 26 -185 0
-193 191 0
-193 -192 0
193 -191 192 0
-194 -186 0
-194 -193 0
194 186 193 0
-195 -21 0
-195 -194 0
195 21 194 0
-196 -149 0
-196 -155 0
196 149 155 0
-197 -162 0
-197 196 0
197 162 -196 0
-198 -154 0
-198 -197 0
198 154 197 0
-199 154 0
-199 197 0
199 -154 -197 0
-200 -198 0
-200 -199 0
200 198 199 0
-201 21 0
-201 194 0
201 -21 -194 0
-202 200 0
-202 -201 0
202 -200 201 0
-203 -195 0
-203 -202 0
203 195 202 0
-204 -167 0
-204 203 0
204 167 -203 0
-205 2 0
-205 -204 0
205 -2 204 0
-206 6 0
-206 205 0
206 -6 -205 0
-207 -6 0
-207 -205 0
207 6 205 0
-208 -206 0
-208 -207 0
208 206 207 0
209 -2 208 0
-210 3 0
-210 -204 0
210 -3 204 0
-211 -1 0
-211 -7 0
211 1 7 0
-212 1 0
-212 7 0
212 -1 -7 0
-213 -211 0
-213 -212 0
213 211 212 0
-214 162 0
-214 204 0
214 -162 -204 0
-215 -162 0
-215 -204 0
215 162 204 0
-216 -214 0
-216 -215 0
216 214 215 0
-217 213 0
-217 216 0
217 -213 -216 0
-218 -162 0
-218 -213 0
218 162 213 0
-219 -217 0
-219 -218 0
219 217 218 0
-220 2 0
-220 -219 0
220 -2 219 0
-221 210 0
-221 220 0
221 -210 -220 0
-222 4 0
-222 -204 0
222 -4 204 0
-223 3 0
-223 -219 0
223 -3 219 0
-224 222 0
-224 223 0
224 -222 -223 0
-225 -222 0
-225 -223 0
225 222 223 0
-226 -224 0
-226 -225 0
226 224 225 0
-227 221 0
-227 226 0
227 -221 -226 0
-228 -221 0
-228 -226 0
228 221 226 0
-229 -227 0
-229 -228 0
229 227 228 0
-230 118 0
-230 214 0
230 -118 -214 0
-231 -118 0
-231 -214 0
231 118 214 0
-232 -230 0
-232 -231 0
232 230 231 0
-233 213 0
-233 232 0
233 -213 -232 0
-234 -118 0
-234 -213 0
234 118 213 0
-235 -233 0
-235 -234 0
235 233 234 0
-236 2 0
-236 -235 0
236 -2 235 0
-237 229 0
-237 236 0
237 -229 -236 0
-238 -224 0
-238 -227 0
238 224 227 0
-239 5 0
-239 -204 0
239 -5 204 0
-240 4 0
-240 -219 0
240 -4 219 0
-241 239 0
-241 240 0
241 -239 -240 0
-242 -239 0
-242 -240 0
242 239 240 0
-243 -241 0
-243 -242 0
243 241 242 0
-244 -238 0
-244 243 0
244 238 -243 0
-245 238 0
-245 -243 0
245 -238 243 0
-246 -244 0
-246 -245 0
246 244 245 0
-247 3 0
-247 -235 0
247 -3 235 0
-248 246 0
-248 247 0
248 -246 -247 0
-249 -246 0
-249 -247 0
249 246 247 0
-250 -248 0
-250 -249 0
250 248 249 0
-251 237 0
-251 250 0
251 -237 -250 0
-252 -237 0
-252 -250 0
252 237 250 0
-253 -251 0
-253 -252 0
253 251 252 0
-254 -77 0
-254 230 0
254 77 -230 0
-255 77 0
-255 -230 0
255 -77 230 0
-256 -254 0
-256 -255 0
256 254 255 0
-257 213 0
-257 256 0
257 -213 -256 0
-258 77 0
-258 -213 0
258 -77 213 0
-259 -257 0
-259 -258 0
259 257 258 0
-260 2 0
-260 -259 0
260 -2 259 0
-261 253 0
-261 260 0
261 -253 -260 0
-262 -253 0
-262 -260 0
262 253 260 0
-263 -261 0
-263 -262 0
263 261 262 0
-264 -229 0
-264 -236 0
264 229 236 0
-265 -237 0
-265 -264 0
265 237 264 0
-266 -210 0
-266 -220 0
266 210 220 0
-267 -221 0
-267 -266 0
267 221 266 0
-268 -205 0
-268 -267 0
268 205 267 0
-269 -265 0
-269 268 0
269 265 -268 0
-270 -263 0
-270 269 0
270 263 -269 0
-271 263 0
-271 -269 0
271 -263 269 0
-272 -270 0
-272 -271 0
272 270 271 0
-273 8 0
-273 272 0
273 -8 -272 0
-274 265 0
-274 -268 0
274 -265 268 0
-275 -269 0
-275 -274 0
275 269 274 0
-276 9 0
-276 275 0
276 -9 -275 0
-277 205 0
-277 267 0
277 -205 -267 0
-278 -268 0
-278 -277 0
278 268 277 0
-279 10 0
-279 278 0
279 -10 -278 0
-280 -10 0
-280 -278 0
280 10 278 0
-281 -279 0
-281 -280 0
281 279 280 0
-282 206 0
-282 281 0
282 -206 -281 0
-283 -279 0
-283 -282 0
283 279 282 0
-284 -9 0
-284 -275 0
284 9 275 0
-285 -276 0
-285 -284 0
285 276 284 0
-286 -283 0
-286 285 0
286 283 -285 0
-287 -276 0
-287 -286 0
287 276 286 0
-288 -8 0
-288 -272 0
288 8 272 0
-289 -273 0
-289 -288 0
289 273 288 0
-290 -287 0
-290 289 0
290 287 -289 0
-291 -273 0
-291 -290 0
291 273 290 0
-292 -248 0
-292 -251 0
292 248 251 0
-293 -241 0
-293 -244 0
293 241 244 0
-294 1 0
-294 -204 0
294 -1 204 0
-295 5 0
-295 -219 0
295 -5 219 0
-296 294 0
-296 295 0
296 -294 -295 0
-297 -294 0
-297 -295 0
297 294 295 0
-298 -296 0
-298 -297 0
298 296 297 0
-299 -293 0
-299 298 0
299 293 -298 0
-300 293 0
-300 -298 0
300 -293 298 0
-301 -299 0
-301 -300 0
301 299 300 0
-302 4 0
-302 -235 0
302 -4 235 0
-303 301 0
-303 302 0
303 -301 -302 0
-304 -301 0
-304 -302 0
304 301 302 0
-305 -303 0
-305 -304 0
305 303 304 0
-306 -292 0
-306 305 0
306 292 -305 0
-307 292 0
-307 -305 0
307 -292 305 0
-308 -306 0
-308 -307 0
308 306 307 0
-309 3 0
-309 -259 0
309 -3 259 0
-310 308 0
-310 309 0
310 -308 -309 0
-311 -308 0
-311 -309 0
311 308 309 0
-312 -310 0
-312 -311 0
312 310 311 0
-313 261 0
-313 312 0
313 -261 -312 0
-314 -261 0
-314 -312 0
314 261 312 0
-315 -313 0
-315 -314 0
315 313 314 0
-316 -48 0
-316 254 0
316 48 -254 0
-317 48 0
-317 -254 0
317 -48 254 0
-318 -316 0
-318 -317 0
318 316 317 0
-319 213 0
-319 318 0
319 -213 -318 0
-320 48 0
-320 -213 0
320 -48 213 0
-321 -319 0
-321 -320 0
321 319 320 0
-322 2 0
-322 -321 0
322 -2 321 0
-323 315 0
-323 322 0
323 -315 -322 0
-324 -315 0
-324 -322 0
324 315 322 0
-325 -323 0
-325 -324 0
325 323 324 0
-326 270 0
-326 -325 0
326 -270 325 0
-327 -270 0
-327 325 0
327 270 -325 0
-328 -326 0
-328 -327 0
328 326 327 0
-329 7 0
-329 328 0
329 -7 -328 0
-330 -7 0
-330 -328 0
330 7 328 0
-331 -329 0
-331 -330 0
331 329 330 0
-332 -291 0
-332 331 0
332 291 -331 0
-333 291 0
-333 -331 0
333 -291 331 0
-334 -332 0
-334 -333 0
334 332 333 0
-335 -206 0
-335 -281 0
335 206 281 0
-336 -282 0
-336 -335 0
336 282 335 0
-337 -208 0
-337 -336 0
337 208 336 0
338 -208 -336 0
-339 -337 0
-339 -338 0
-340 334 0
-340 339 0
-341 -334 0
-341 336 0
342 340 341 0
-343 36 0
-343 -342 0
344 -209 343 0
345 36 -342 0
-346 -344 0
-346 -345 0
-347 283 0
-347 -285 0
347 -283 285 0
-348 -286 0
-348 -347 0
348 286 347 0
-349 337 0
-349 -348 0
349 -337 348 0
350 337 -348 0
-351 -349 0
-351 -350 0
-352 334 0
-352 351 0
-353 -334 0
-353 348 0
354 352 353 0
-355 31 0
-355 -354 0
356 346 355 0
357 31 -354 0
-358 -356 0
-358 -357 0
-359 287 0
-359 -289 0
359 -287 289 0
-360 -290 0
-360 -359 0
360 290 359 0
-361 349 0
-361 -360 0
361 -349 360 0
362 349 -360 0
-363 -361 0
-363 -362 0
-364 334 0
-364 363 0
-365 -334 0
-365 360 0
366 364 365 0
-367 26 0
-367 -366 0
368 358 367 0
369 26 -366 0
-370 -368 0
-370 -369 0
371 334 -361 0
372 -334 361 0
-373 -371 0
-373 -372 0
-374 334 0
-374 373 0
-375 -21 0
-375 374 0
376 370 375 0
377 -21 374 0
-378 -376 0
-378 -377 0
-379 -14 0
-379 378 0
379 0
